22    4
8    20    9    10    
0   0   0   0   0     3      4    2    3  
2   0   0   0   4     1      5  
10   0   0   0   6     1      11  
10   8   0   0   0     3      21    20    16  
4   7   0   0   0     1      6  
6   0   10   0   0     1      7  
2   0   4   0   0     1      8  
2   0   0   8   0     1      9  
9   0   0   0   6     1      10  
3   0   8   0   0     2      12    11  
1   0   0   9   0     3      21    14    16  
2   0   5   0   0     3      13    21    14  
8   7   0   0   0     2      16    15  
8   0   10   0   0     2      20    15  
1   6   0   0   0     3      18    17    19  
1   0   0   5   0     1      19  
2   0   5   0   0     1      18  
10   0   10   0   0     1      22  
7   0   10   0   0     1      22  
8   0   10   0   0     1      22  
1   0   9   0   0     1      22  
0   0   0   0   0     0    
